3218454.0
3225100.0
3218454.0
3208940.0
3163366.0
3280188.0
3163366.0
3280188.0
3163366.0
3218454.0
3208940.0
3280188.0
3264028.0
3280188.0
3225100.0
3225100.0
3218454.0
3280188.0
3161968.0
3076973.5
3158988.0
3096113.5
3161968.0
3142828.0
3076973.5
3096113.5
3158988.0
3158988.0
3158988.0
3158988.0
3161968.0
3096113.5
3096113.5
3161968.0
3158988.0
3076973.5
3168857.5
3168857.5
3240105.5
3223945.5
3178371.5
3123283.5
3178371.5
3240105.5
3240105.5
3185017.5
3123283.5
3123283.5
3056031.0
3036891.0
3036891.0
3138045.5
3118905.5
3056031.0
3121885.5
3036891.0
3138045.5
3056031.0
3036891.0
3121885.5
2991375.5
3046463.5
3046463.5
3036949.5
3036949.5
2991375.5
3036949.5
3108197.5
3046463.5
3092037.5
3092037.5
2991375.5
3092037.5
2991375.5
2991375.5
3053109.5
3046463.5
3092037.5
3006137.5
2924123.0

SiradanCizelgeleme.py

